words_hard_train/3697.qaiger
aag 34 12 0 1 22
2
4
8
12
16
28
36
40
42
46
54
56
68
6 3 5
10 7 8
14 10 12
18 14 17
20 6 9
22 21 12
24 23 16
26 19 25
30 27 28
32 2 4
34 33 7
38 34 36
44 40 43
48 46 2
50 45 49
52 39 50
58 54 57
60 52 59
62 11 16
64 63 28
66 61 65
68 31 67
i0 2 y2[3]
i1 2 y2[4]
i2 2 y2[5]
i3 2 y2[6]
i4 2 y2[7]
i5 1 x1[7]
i6 1 x1[6]
i7 1 x1[4]
i8 2 y2[2]
i9 1 x1[5]
i10 1 x1[3]
i11 2 y2[1]
o0 bv[0]
c
simplified
  >=
    1
    and
      subtract
        -25
        2 y2
      >> 2
        1 x1
