words_hard_train/3697.qaiger.qdimacs
p cnf 34 67
a 14 18 20 23 27 0
e 1 2 3 4 5 6 7 8 9 10 11 12 13 15 16 17 19 21 22 24 25 26 28 29 30 31 32 33 34 0
1 2 3 0
-1 -3 0
-2 -3 0
3 -4 5 0
-3 -5 0
4 -5 0
-5 -6 7 0
5 -7 0
6 -7 0
-7 8 9 0
7 -9 0
-8 -9 0
-3 4 10 0
3 -10 0
-4 -10 0
10 -6 11 0
-10 -11 0
6 -11 0
11 -8 12 0
-11 -12 0
8 -12 0
9 12 13 0
-9 -13 0
-12 -13 0
13 -14 15 0
-13 -15 0
14 -15 0
-1 -2 16 0
1 -16 0
2 -16 0
16 3 17 0
-16 -17 0
-3 -17 0
-17 -18 19 0
17 -19 0
18 -19 0
-20 21 22 0
20 -22 0
-21 -22 0
-23 -1 24 0
23 -24 0
1 -24 0
22 24 25 0
-22 -25 0
-24 -25 0
19 -25 26 0
-19 -26 0
25 -26 0
-27 28 29 0
27 -29 0
-28 -29 0
-26 29 30 0
26 -30 0
-29 -30 0
5 -8 31 0
-5 -31 0
8 -31 0
31 -14 32 0
-31 -32 0
14 -32 0
30 32 33 0
-30 -33 0
-32 -33 0
15 33 34 0
-15 -34 0
-33 -34 0
34 0
